92 4
10 15 15 17
0 0 0 0 0 3 2 3 4
2 8 0 0 0 3 15 26 40
6 0 0 3 0 3 5 6 10
6 0 1 0 0 3 7 46 72
7 0 0 4 0 2 71 88
3 8 0 0 0 3 8 11 13
2 0 0 5 0 3 9 14 17
4 5 0 0 0 1 28
2 0 0 0 2 2 12 55
7 0 0 0 5 3 19 22 76
3 0 0 10 0 2 16 75
10 0 0 2 0 2 56 69
3 0 4 0 0 2 20 62
10 0 0 0 9 3 31 39 42
9 1 0 0 0 3 18 21 28
4 0 10 0 0 1 86
8 0 1 0 0 3 32 54 59
3 2 0 0 0 3 24 29 30
5 0 1 0 0 1 69
7 0 0 0 8 3 35 41 48
1 0 6 0 0 3 25 27 51
8 0 0 4 0 2 23 37
5 0 0 0 9 1 52
5 0 10 0 0 1 49
9 0 0 0 4 1 34
4 0 0 6 0 1 54
2 0 8 0 0 1 63
6 0 0 0 4 1 54
9 0 0 0 1 3 33 47 78
3 0 0 0 7 2 77 82
7 0 0 0 2 3 36 38 68
3 1 0 0 0 2 43 53
8 0 0 3 0 2 50 64
2 0 0 0 1 1 75
9 0 0 0 1 1 65
4 0 0 1 0 1 63
2 0 0 4 0 1 59
1 0 0 6 0 2 44 67
10 0 0 0 9 1 57
5 0 0 0 8 1 60
1 0 2 0 0 2 45 74
6 0 4 0 0 1 70
4 0 2 0 0 2 48 70
1 0 0 7 0 2 57 82
10 0 0 0 4 1 70
7 0 7 0 0 1 87
1 0 0 0 2 1 50
3 0 0 0 7 1 63
2 0 3 0 0 1 62
9 0 0 0 10 1 79
6 3 0 0 0 1 88
4 0 0 5 0 1 67
4 5 0 0 0 2 58 91
10 8 0 0 0 1 81
9 0 7 0 0 1 86
6 0 7 0 0 1 79
3 0 6 0 0 1 61
4 0 0 10 0 1 68
9 0 0 8 0 1 84
6 0 0 10 0 1 64
9 0 1 0 0 1 89
3 0 0 0 7 1 66
8 2 0 0 0 1 73
7 0 0 0 8 1 80
2 0 0 0 4 1 81
3 0 10 0 0 1 84
6 0 0 5 0 1 78
8 0 0 4 0 2 76 86
2 0 0 0 5 1 75
10 0 0 0 4 2 81 84
6 0 0 0 3 1 89
4 0 0 0 3 1 85
1 0 9 0 0 1 78
4 0 0 0 2 1 80
4 3 0 0 0 2 79 80
2 0 10 0 0 1 82
7 0 0 6 0 1 88
1 0 8 0 0 1 85
1 0 0 6 0 1 83
3 6 0 0 0 1 91
10 0 0 8 0 1 85
4 0 0 0 1 1 89
7 0 4 0 0 1 87
3 0 0 0 10 1 87
2 0 0 6 0 1 90
2 0 0 0 2 1 90
7 0 0 10 0 1 91
6 0 9 0 0 1 90
10 0 0 3 0 1 92
7 9 0 0 0 1 92
1 6 0 0 0 1 92
0 0 0 0 0 0
